
  25    0


   0  12 2 3 4 5 6 7 8 9 10 22 23 24 
   7   5 21 17 16 14 13 
   6   4 20 19 17 13 
   8   4 15 14 12 11 
   3   4 16 15 14 11 
   7   3 18 12 11 
   3   2 15 13 
   1   1 11 
   8   1 12 
   6   1 11 
   7   1 25
  10   1 25
   4   1 25
   3   1 25
   7   1 25
   4   1 25
  10   1 25
   1   1 25
   9   1 25
   1   1 25
   7   1 25
   1   1 25
   8   1 25
   7   1 25
   0   0 
